(set-logic ALL)
(declare-fun seed0_T_1 () Int)
(declare-fun seed0_T_2 () Bool)
(declare-fun seed0_T_3 () Bool)
(declare-fun seed0_var_0xINPUT_262485 () String)
(assert (and (or (>= seed0_T_1 (str.len seed0_var_0xINPUT_262485)) (not (<= (+ seed0_T_1 (- 750)) (mod seed0_T_1 seed0_T_1)))) (or (= seed0_T_2 (= seed0_T_1 0)) (and (<= (+ seed0_T_1 (- 81)) (* seed0_T_1 seed0_T_1)) (= (div seed0_T_1 seed0_T_1) (+ seed0_T_1 (- 431))))) (or (= seed0_T_3 (not seed0_T_2)) (> (- seed0_T_1 408) (div seed0_T_1 seed0_T_1))) (or seed0_T_3 (=> (> (- seed0_T_1 (- 631)) (mod seed0_T_1 seed0_T_1)) (<= (- seed0_T_1 524) (div seed0_T_1 seed0_T_1))))))
(check-sat)
(exit)